57 98 91 8 94 75 58 
3 34 71 78 55 95 
46 7 31 54 13 73 
1 63 88 6 89 5 17 16 
33 29 79 10 61 
12 20 53 50 18 82 
21 72 15 2 97 14 86 60 
92 42 44 87 68 77 
96 69 40 59 4 25 
45 19 84 83 43 
27 11 90 66 93 
39 23 67 24 80 
48 37 99 56 74 85 
36 64 49 100 
52 47 32 51 81 35 70 
65 9 28 26 
30 
62 
76 
22 
38 
41 

